1 -1 2 0
1 -1 -3 0
1 -2 -4 0
1 2 5 0
1 6 -7 0
1 -6 5 0
1 6 -8 0
1 6 -9 0
1 6 -10 0
1 -11 -12 0
1 -11 4 0
1 11 5 0
1 -11 13 0
1 5 14 0
1 -5 15 0
1 5 -11 0
1 -5 -2 0
1 5 -16 0
1 -5 6 0
1 -5 13 0
1 13 -17 0
1 13 -5 0
1 13 16 0
1 13 -18 0
1 13 -19 0
1 -13 -6 0
1 -13 -1 0
1 4 -20 0
1 -4 21 0
1 -4 22 0
1 4 11 0
1 -4 23 0
1 -4 6 0
1 -10 20 0
1 -10 21 0
1 -10 -11 0
1 -10 -4 0
1 -10 24 0
1 10 25 0
1 -19 7 0
1 19 -15 0
1 -19 -5 0
1 19 -13 0
1 -15 12 0
1 -15 22 0
1 -15 -5 0
1 -15 26 0
1 -15 19 0
1 -15 13 0
1 -18 -7 0
1 -18 12 0
1 -18 -27 0
1 18 -8 0
1 -14 -12 0
1 -14 -28 0
1 -14 -21 0
1 -14 -27 0
1 14 5 0
1 -14 18 0
1 14 13 0
1 8 29 0
1 8 30 0
1 8 14 0
1 8 -31 0
1 -8 32 0
1 -12 -29 0
1 12 -33 0
1 12 14 0
1 12 31 0
1 -12 -34 0
1 12 18 0
1 -12 -19 0
1 26 7 0
1 -26 20 0
1 26 11 0
1 -26 -31 0
1 26 35 0
1 26 16 0
1 -26 -18 0
1 26 -36 0
1 -7 -31 0
1 -7 -16 0
1 -7 -18 0
1 32 12 0
1 32 -28 0
1 32 27 0
1 -32 -37 0
1 30 -28 0
1 -34 -28 0
1 34 -38 0
1 -34 39 0
1 -29 12 0
1 -29 -28 0
1 -29 27 0
1 29 -8 0
1 29 -39 0
1 -29 -37 0
1 -37 -14 0
1 37 40 0
1 37 -32 0
1 37 18 0
1 -27 -30 0
1 -27 -14 0
1 27 41 0
1 27 -34 0
1 27 32 0
1 -27 18 0
1 -27 37 0
1 27 -42 0
1 -39 30 0
1 -39 28 0
1 -39 40 0
1 -39 43 0
1 39 34 0
1 -39 44 0
1 39 -42 0
1 39 45 0
1 28 -29 0
1 28 -30 0
1 28 -46 0
1 -28 40 0
1 -28 -43 0
1 28 18 0
1 3 -47 0
1 -3 1 0
1 -47 -48 0
1 -9 49 0
1 -9 50 0
1 -9 51 0
1 -9 52 0
1 9 -53 0
1 -9 -54 0
1 9 -55 0
1 9 6 0
1 -9 56 0
1 -57 49 0
1 57 51 0
1 -57 -11 0
1 57 54 0
1 -57 -55 0
1 57 -9 0
1 50 -58 0
1 50 -21 0
1 -50 59 0
1 -50 47 0
1 50 60 0
1 -50 61 0
1 50 3 0
1 54 -58 0
1 54 21 0
1 -54 -22 0
1 -54 47 0
1 -54 62 0
1 -54 -61 0
1 -54 -24 0
1 -54 -9 0
1 54 -3 0
1 -49 -63 0
1 -49 64 0
1 -49 65 0
1 49 -47 0
1 49 60 0
1 -49 -66 0
1 -49 -9 0
1 53 49 0
1 53 47 0
1 53 60 0
1 -53 -66 0
1 53 67 0
1 24 -50 0
1 -24 51 0
1 -24 22 0
1 24 -52 0
1 24 54 0
1 -24 68 0
1 22 -51 0
1 -22 -15 0
1 -22 -52 0
1 22 55 0
1 22 -10 0
1 61 21 0
1 -61 -69 0
1 61 70 0
1 61 54 0
1 -61 -68 0
1 -61 18 0
1 61 71 0
1 -21 -52 0
1 21 -69 0
1 21 -70 0
1 -21 -54 0
1 21 68 0
1 -21 -72 0
1 -52 73 0
1 -52 55 0
1 52 74 0
1 -52 -21 0
1 52 -57 0
1 52 24 0
1 -55 21 0
1 -55 22 0
1 55 57 0
1 55 75 0
1 55 38 0
1 -55 16 0
1 -55 61 0
1 55 -76 0
1 55 24 0
1 -51 73 0
1 51 77 0
1 -51 58 0
1 51 -57 0
1 51 78 0
1 -51 60 0
1 51 -24 0
1 68 -73 0
1 -68 77 0
1 68 -21 0
1 -68 -75 0
1 68 61 0
1 68 -79 0
1 -68 9 0
1 -16 -7 0
1 -16 52 0
1 16 69 0
1 16 -70 0
1 16 4 0
1 -16 -5 0
1 -16 -60 0
1 -16 -71 0
1 16 -10 0
1 -16 13 0
1 -20 7 0
1 20 -58 0
1 20 -69 0
1 20 -4 0
1 -20 5 0
1 -20 -26 0
1 -20 72 0
1 20 10 0
1 -20 13 0
1 -38 17 0
1 -38 23 0
1 38 80 0
1 -38 -26 0
1 -38 -78 0
1 38 55 0
1 -38 71 0
1 38 -72 0
1 -38 25 0
1 -74 -77 0
1 74 -69 0
1 74 -23 0
1 -74 -80 0
1 74 -26 0
1 -74 71 0
1 -74 25 0
1 70 -20 0
1 -70 21 0
1 70 -81 0
1 -70 38 0
1 -70 -72 0
1 70 45 0
1 -70 -36 0
1 72 -20 0
1 72 21 0
1 72 70 0
1 -72 -81 0
1 -72 31 0
1 72 -38 0
1 -72 16 0
1 -72 -61 0
1 -72 -82 0
1 -72 45 0
1 -69 -73 0
1 -69 -20 0
1 69 21 0
1 -69 83 0
1 -69 -84 0
1 69 38 0
1 -69 -16 0
1 71 74 0
1 -71 -21 0
1 -71 69 0
1 -71 -84 0
1 71 75 0
1 71 16 0
1 71 -61 0
1 -31 17 0
1 -31 -12 0
1 31 -26 0
1 31 -8 0
1 31 72 0
1 -36 -73 0
1 36 -28 0
1 -36 70 0
1 -36 -31 0
1 -36 -80 0
1 36 26 0
1 -36 -8 0
1 36 -72 0
1 36 25 0
1 43 17 0
1 43 33 0
1 43 -28 0
1 -43 80 0
1 43 -39 0
1 -43 -72 0
1 -43 -45 0
1 45 17 0
1 45 -85 0
1 -45 33 0
1 -45 -70 0
1 -45 -35 0
1 -45 86 0
1 80 -17 0
1 80 74 0
1 80 43 0
1 -80 -31 0
1 80 -87 0
1 -80 88 0
1 -80 42 0
1 -80 -36 0
1 -17 -89 0
1 -17 90 0
1 -17 91 0
1 -17 -40 0
1 17 43 0
1 17 38 0
1 -17 -13 0
1 -17 88 0
1 17 42 0
1 23 74 0
1 -23 81 0
1 23 4 0
1 23 -31 0
1 -23 -92 0
1 -23 -38 0
1 23 -87 0
1 -23 45 0
1 -23 -25 0
1 -23 -36 0
1 -25 74 0
1 25 90 0
1 -25 81 0
1 25 -43 0
1 25 -23 0
1 -25 31 0
1 -25 -82 0
1 -25 -93 0
1 -40 85 0
1 40 -27 0
1 40 80 0
1 40 -35 0
1 40 86 0
1 40 -39 0
1 -40 37 0
1 42 -28 0
1 42 27 0
1 -42 -80 0
1 -42 86 0
1 -42 -39 0
1 91 85 0
1 91 33 0
1 -91 41 0
1 91 94 0
1 -91 -35 0
1 -91 -86 0
1 -91 44 0
1 88 17 0
1 88 85 0
1 -88 -91 0
1 88 86 0
1 -88 44 0
1 88 95 0
1 88 -96 0
1 -86 -33 0
1 -86 -97 0
1 86 -40 0
1 86 -43 0
1 -86 98 0
1 86 99 0
1 86 88 0
1 -33 -12 0
1 33 100 0
1 33 -101 0
1 -33 -91 0
1 -33 -40 0
1 33 102 0
1 -33 86 0
1 -33 99 0
1 -33 45 0
1 35 -85 0
1 35 103 0
1 -35 -90 0
1 35 -91 0
1 -35 -43 0
1 35 26 0
1 -35 87 0
1 35 42 0
1 35 45 0
1 -85 -104 0
1 -85 -103 0
1 -85 90 0
1 -85 -40 0
1 -85 -105 0
1 -85 35 0
1 -85 -88 0
1 -85 -42 0
1 85 45 0
1 -97 -41 0
1 -97 90 0
1 -97 44 0
1 -97 86 0
1 -97 -95 0
1 -99 33 0
1 -99 46 0
1 -99 -97 0
1 99 -86 0
1 -99 -44 0
1 -99 -87 0
1 -99 95 0
1 101 -33 0
1 101 -46 0
1 -101 -103 0
1 101 41 0
1 -101 44 0
1 -101 95 0
1 102 -46 0
1 -102 -86 0
1 102 -106 0
1 -102 44 0
1 95 -101 0
1 -95 41 0
1 95 102 0
1 -95 -37 0
1 -41 107 0
1 41 101 0
1 41 97 0
1 41 -91 0
1 41 108 0
1 41 -102 0
1 -41 99 0
1 -44 109 0
1 -44 101 0
1 44 -97 0
1 -44 91 0
1 44 108 0
1 44 105 0
1 -44 102 0
1 44 88 0
1 46 110 0
1 46 28 0
1 46 101 0
1 -46 111 0
1 -46 -97 0
1 -46 -91 0
1 46 112 0
1 -46 105 0
1 -46 99 0
1 113 -3 0
1 -48 114 0
1 -48 113 0
1 56 -115 0
1 -56 116 0
1 56 117 0
1 -56 118 0
1 -56 -114 0
1 -56 119 0
1 56 9 0
1 120 -116 0
1 -120 57 0
1 120 114 0
1 -120 56 0
1 -119 64 0
1 119 -116 0
1 -116 121 0
1 116 -120 0
1 -116 48 0
1 -116 66 0
1 116 -67 0
1 116 -56 0
1 114 115 0
1 114 120 0
1 115 -122 0
1 -115 -120 0
1 115 -48 0
1 -115 -56 0
1 67 117 0
1 67 53 0
1 67 24 0
1 67 123 0
1 65 -49 0
1 65 116 0
1 -65 -22 0
1 65 124 0
1 65 -53 0
1 65 -119 0
1 65 67 0
1 66 49 0
1 -66 -64 0
1 -66 -117 0
1 -66 -125 0
1 66 61 0
1 66 124 0
1 66 -126 0
1 64 -127 0
1 -64 49 0
1 64 21 0
1 64 -53 0
1 64 124 0
1 64 -123 0
1 64 -126 0
1 -123 128 0
1 -123 -58 0
1 -123 -64 0
1 123 129 0
1 -123 78 0
1 -123 60 0
1 123 -56 0
1 123 130 0
1 -118 128 0
1 118 77 0
1 -118 58 0
1 -118 78 0
1 118 123 0
1 118 56 0
1 -124 -128 0
1 124 64 0
1 -124 117 0
1 -124 56 0
1 117 -128 0
1 -117 -65 0
1 -117 -120 0
1 -117 124 0
1 -117 -66 0
1 60 127 0
1 -60 -49 0
1 -60 50 0
1 -60 -58 0
1 -60 -68 0
1 -60 16 0
1 -60 -123 0
1 -58 -49 0
1 -58 -20 0
1 58 118 0
1 -58 131 0
1 58 -125 0
1 58 -53 0
1 58 -68 0
1 -58 123 0
1 58 -126 0
1 -78 127 0
1 -78 -77 0
1 78 -63 0
1 78 -59 0
1 -78 -118 0
1 -78 62 0
1 77 51 0
1 -77 -118 0
1 -77 132 0
1 77 -78 0
1 77 68 0
1 -77 -62 0
1 -77 126 0
1 127 77 0
1 127 -64 0
1 127 -133 0
1 -127 84 0
1 127 125 0
1 127 60 0
1 -127 66 0
1 127 134 0
1 -127 -135 0
1 125 127 0
1 -125 -58 0
1 -125 133 0
1 125 84 0
1 -125 -136 0
1 125 66 0
1 -125 -134 0
1 125 -135 0
1 126 128 0
1 -126 137 0
1 126 -138 0
1 -126 129 0
1 -126 -139 0
1 131 -128 0
1 -131 77 0
1 131 -58 0
1 -131 64 0
1 -131 -133 0
1 131 140 0
1 131 -138 0
1 -131 78 0
1 -131 66 0
1 -131 134 0
1 131 126 0
1 131 -139 0
1 -75 -127 0
1 -75 -52 0
1 75 69 0
1 75 62 0
1 75 -68 0
1 73 127 0
1 73 63 0
1 73 59 0
1 -73 -51 0
1 73 -75 0
1 73 132 0
1 -73 55 0
1 -73 -36 0
1 -84 141 0
1 -84 -125 0
1 84 138 0
1 -84 79 0
1 -84 76 0
1 -135 -59 0
1 -135 -141 0
1 135 125 0
1 -135 132 0
1 135 62 0
1 -135 71 0
1 135 45 0
1 -135 -139 0
1 59 -73 0
1 59 77 0
1 -59 -142 0
1 -59 94 0
1 -59 -81 0
1 59 78 0
1 59 -62 0
1 59 143 0
1 59 -96 0
1 62 77 0
1 -62 -144 0
1 62 94 0
1 -62 84 0
1 -62 -54 0
1 62 143 0
1 -62 82 0
1 63 -49 0
1 63 -77 0
1 -63 -144 0
1 -63 -78 0
1 -132 73 0
1 -132 -77 0
1 -132 144 0
1 -132 145 0
1 -132 75 0
1 -132 -53 0
1 132 -78 0
1 132 -143 0
1 -132 134 0
1 132 135 0
1 81 59 0
1 -81 -146 0
1 -81 62 0
1 -81 79 0
1 -81 -76 0
1 -81 -25 0
1 -82 146 0
1 -82 69 0
1 82 72 0
1 82 -70 0
1 82 76 0
1 -82 71 0
1 94 146 0
1 -94 91 0
1 94 145 0
1 -94 -147 0
1 -94 -62 0
1 -94 -76 0
1 -94 -148 0
1 94 -25 0
1 -96 -59 0
1 -96 -146 0
1 96 141 0
1 96 -94 0
1 96 -83 0
1 -96 147 0
1 96 88 0
1 96 149 0
1 96 -150 0
1 96 -148 0
1 -141 76 0
1 141 103 0
1 141 151 0
1 141 94 0
1 -141 81 0
1 141 84 0
1 -141 106 0
1 141 82 0
1 -76 141 0
1 76 -152 0
1 -76 -55 0
1 76 153 0
1 -76 96 0
1 -76 -135 0
1 -146 -51 0
1 146 144 0
1 146 81 0
1 146 84 0
1 146 -79 0
1 -146 154 0
1 -146 -96 0
1 -79 -155 0
1 79 -156 0
1 79 -157 0
1 -79 -94 0
1 79 143 0
1 -79 96 0
1 79 82 0
1 -79 -135 0
1 -90 -85 0
1 -90 -76 0
1 -90 -97 0
1 -90 -141 0
1 -90 -149 0
1 87 -90 0
1 87 -83 0
1 87 -23 0
1 87 -35 0
1 -87 99 0
1 87 76 0
1 -87 -25 0
1 -103 157 0
1 -103 -141 0
1 103 -83 0
1 103 -147 0
1 -103 -92 0
1 -103 76 0
1 -103 -149 0
1 103 148 0
1 106 -89 0
1 -106 85 0
1 106 -147 0
1 -106 154 0
1 -106 149 0
1 -106 148 0
1 -147 -109 0
1 147 90 0
1 -147 -94 0
1 147 -70 0
1 -147 -158 0
1 147 112 0
1 -147 -105 0
1 147 -87 0
1 147 -148 0
1 148 94 0
1 148 112 0
1 -148 105 0
1 -148 -87 0
1 -148 -72 0
1 -83 -159 0
1 -83 -155 0
1 83 103 0
1 -83 -149 0
1 -83 90 0
1 83 94 0
1 -83 160 0
1 83 -152 0
1 83 -96 0
1 -149 159 0
1 -149 103 0
1 -149 -90 0
1 149 94 0
1 -149 158 0
1 -149 -152 0
1 149 -106 0
1 149 96 0
1 -109 -89 0
1 109 85 0
1 109 -33 0
1 109 -92 0
1 109 105 0
1 -109 86 0
1 -109 -93 0
1 -105 -89 0
1 105 -109 0
1 -105 147 0
1 105 -92 0
1 -105 -161 0
1 -105 -152 0
1 110 100 0
1 -110 -46 0
1 -110 147 0
1 110 -112 0
1 110 98 0
1 -110 148 0
1 -112 104 0
1 112 100 0
1 -112 -46 0
1 112 -147 0
1 112 -92 0
1 -112 160 0
1 112 161 0
1 -112 44 0
1 112 148 0
1 112 93 0
1 161 110 0
1 -161 109 0
1 161 -162 0
1 161 112 0
1 -161 -80 0
1 -161 105 0
1 -161 -106 0
1 89 162 0
1 89 -163 0
1 89 108 0
1 89 161 0
1 89 105 0
1 -89 -106 0
1 89 -164 0
1 92 -110 0
1 -92 -103 0
1 -92 -165 0
1 92 158 0
1 -92 105 0
1 -92 106 0
1 92 164 0
1 -92 93 0
1 -93 110 0
1 -93 -103 0
1 93 162 0
1 -93 -165 0
1 -93 158 0
1 93 112 0
1 93 -105 0
1 -93 -106 0
1 93 166 0
1 107 167 0
1 -107 89 0
1 107 46 0
1 107 -108 0
1 -107 161 0
1 107 -98 0
1 -107 44 0
1 -108 107 0
1 108 100 0
1 -108 46 0
1 -108 -41 0
1 -108 158 0
1 108 161 0
1 108 -168 0
1 169 104 0
1 -169 111 0
1 169 161 0
1 169 166 0
1 -163 -170 0
1 163 -165 0
1 163 168 0
1 -163 98 0
1 163 171 0
1 163 169 0
1 98 107 0
1 -98 -110 0
1 98 100 0
1 -98 172 0
1 98 163 0
1 -98 112 0
1 98 -86 0
1 98 -173 0
1 -98 174 0
1 100 163 0
1 -100 -108 0
1 -100 112 0
1 100 169 0
1 168 -175 0
1 104 85 0
1 -104 176 0
1 -104 -162 0
1 -104 108 0
1 104 112 0
1 104 -168 0
1 -104 169 0
1 174 100 0
1 174 -111 0
1 174 177 0
1 174 -178 0
1 -174 164 0
1 177 111 0
1 -177 162 0
1 -177 -178 0
1 -173 -111 0
1 173 -170 0
1 173 -178 0
1 173 -171 0
1 -172 111 0
1 -172 176 0
1 -171 -177 0
1 -171 -95 0
1 -171 173 0
1 -171 169 0
1 -170 171 0
1 -170 -41 0
1 -170 163 0
1 -170 -173 0
1 178 111 0
1 178 172 0
1 178 177 0
1 -178 -163 0
1 -178 -169 0
1 111 178 0
1 111 173 0
1 -111 -174 0
1 111 -169 0
1 -129 -128 0
1 -129 -117 0
1 129 118 0
1 129 -131 0
1 -129 -179 0
1 129 124 0
1 129 -123 0
1 -128 -73 0
1 -128 122 0
1 128 117 0
1 128 179 0
1 128 180 0
1 128 -124 0
1 128 -126 0
1 -138 181 0
1 138 182 0
1 138 -131 0
1 138 -84 0
1 138 180 0
1 -138 -183 0
1 -138 -139 0
1 -139 -121 0
1 -139 179 0
1 139 180 0
1 139 -183 0
1 180 -128 0
1 -180 -121 0
1 180 145 0
1 -180 129 0
1 -180 -139 0
1 121 -184 0
1 -121 145 0
1 -121 138 0
1 -121 -180 0
1 121 150 0
1 121 -134 0
1 -179 128 0
1 179 -122 0
1 -179 -138 0
1 -179 -129 0
1 -122 -128 0
1 122 115 0
1 -122 185 0
1 122 138 0
1 -122 129 0
1 122 179 0
1 -122 139 0
1 -133 63 0
1 -133 -181 0
1 -133 -81 0
1 -133 131 0
1 133 -180 0
1 133 183 0
1 134 126 0
1 -134 121 0
1 -134 -181 0
1 -134 -133 0
1 -134 125 0
1 134 -180 0
1 -134 183 0
1 145 -186 0
1 145 63 0
1 145 -140 0
1 145 136 0
1 -145 137 0
1 150 63 0
1 150 -121 0
1 150 -181 0
1 150 183 0
1 150 137 0
1 130 -187 0
1 -130 157 0
1 130 138 0
1 -130 188 0
1 -130 -123 0
1 -182 157 0
1 -182 -144 0
1 182 145 0
1 -182 -133 0
1 182 -138 0
1 -182 188 0
1 -182 -143 0
1 183 -187 0
1 183 -189 0
1 -183 139 0
1 181 187 0
1 -181 117 0
1 -181 -145 0
1 181 190 0
1 -181 -133 0
1 -181 -188 0
1 -181 139 0
1 -144 -186 0
1 -144 -63 0
1 -144 59 0
1 144 140 0
1 -144 132 0
1 -144 137 0
1 -143 -186 0
1 143 63 0
1 143 59 0
1 143 146 0
1 143 144 0
1 143 182 0
1 143 -140 0
1 143 136 0
1 -143 137 0
1 -157 -191 0
1 -157 142 0
1 -157 146 0
1 157 140 0
1 157 192 0
1 -157 -193 0
1 157 154 0
1 157 137 0
1 -154 -186 0
1 -154 142 0
1 154 146 0
1 -154 -157 0
1 -154 -79 0
1 186 194 0
1 -186 159 0
1 186 -195 0
1 186 -144 0
1 -186 -136 0
1 -186 160 0
1 136 186 0
1 136 194 0
1 136 157 0
1 -136 144 0
1 136 -145 0
1 136 196 0
1 136 160 0
1 136 -197 0
1 136 154 0
1 -136 -150 0
1 -137 -198 0
1 -137 -194 0
1 137 199 0
1 137 -140 0
1 137 200 0
1 -137 -188 0
1 137 143 0
1 140 -157 0
1 140 145 0
1 140 -201 0
1 140 143 0
1 -155 -186 0
1 155 -191 0
1 -155 192 0
1 -155 152 0
1 155 -79 0
1 -155 149 0
1 152 155 0
1 -152 -141 0
1 -152 -83 0
1 152 188 0
1 -159 -110 0
1 159 191 0
1 -159 151 0
1 -159 -136 0
1 159 -160 0
1 -159 -193 0
1 159 156 0
1 160 186 0
1 160 191 0
1 160 142 0
1 160 -202 0
1 160 -112 0
1 -160 200 0
1 -160 192 0
1 160 193 0
1 160 156 0
1 160 153 0
1 -142 167 0
1 -142 -159 0
1 -142 -155 0
1 -142 -59 0
1 -142 -203 0
1 142 -158 0
1 142 152 0
1 -142 166 0
1 193 -167 0
1 193 159 0
1 -193 155 0
1 -193 157 0
1 -193 -165 0
1 -193 158 0
1 -193 -160 0
1 193 -62 0
1 -191 203 0
1 191 204 0
1 -192 -194 0
1 -192 -159 0
1 192 -191 0
1 -192 155 0
1 192 -157 0
1 -192 203 0
1 192 204 0
1 192 -160 0
1 -192 -132 0
1 -167 194 0
1 -167 142 0
1 -167 83 0
1 167 -147 0
1 167 -193 0
1 -167 156 0
1 167 153 0
1 -167 -148 0
1 158 -167 0
1 -158 -142 0
1 -158 202 0
1 -158 -147 0
1 158 -108 0
1 158 -193 0
1 -158 153 0
1 -158 -148 0
1 166 -205 0
1 166 142 0
1 -166 -151 0
1 -166 206 0
1 -166 -153 0
1 166 207 0
1 -166 -208 0
1 -166 -169 0
1 166 -93 0
1 -165 -142 0
1 -165 166 0
1 -165 206 0
1 -165 -92 0
1 -165 153 0
1 151 -167 0
1 151 176 0
1 151 162 0
1 151 -175 0
1 151 -166 0
1 153 -159 0
1 -153 151 0
1 -153 -162 0
1 153 -165 0
1 153 -158 0
1 153 -160 0
1 -153 76 0
1 153 -164 0
1 202 -167 0
1 -202 159 0
1 -202 209 0
1 202 158 0
1 202 -210 0
1 -164 89 0
1 -164 104 0
1 164 162 0
1 164 -161 0
1 164 -207 0
1 164 174 0
1 -164 -208 0
1 -162 -89 0
1 162 151 0
1 -162 177 0
1 -162 -203 0
1 -162 211 0
1 162 92 0
1 162 -164 0
1 -175 -104 0
1 175 -151 0
1 175 211 0
1 175 -168 0
1 -175 153 0
1 175 173 0
1 175 -207 0
1 -175 -210 0
1 176 -104 0
1 -176 -209 0
1 176 206 0
1 176 -211 0
1 176 -168 0
1 176 -153 0
1 176 175 0
1 -211 -176 0
1 211 208 0
1 211 -175 0
1 211 -164 0
1 -208 -162 0
1 208 -211 0
1 208 -148 0
1 -208 -164 0
1 206 -83 0
1 206 207 0
1 -206 175 0
1 -206 164 0
1 206 166 0
1 -207 -176 0
1 -207 -162 0
1 -207 -206 0
1 207 149 0
1 -207 175 0
1 207 164 0
1 187 -155 0
1 -187 -188 0
1 -187 -183 0
1 -187 130 0
1 188 -187 0
1 -188 185 0
1 188 -184 0
1 188 181 0
1 188 -182 0
1 -188 -152 0
1 -188 212 0
1 -188 -183 0
1 188 -130 0
1 -199 -184 0
1 199 213 0
1 -199 -189 0
1 199 -137 0
1 -200 -199 0
1 200 -185 0
1 200 190 0
1 200 -160 0
1 200 213 0
1 200 -214 0
1 -200 -137 0
1 213 -205 0
1 -213 -194 0
1 -213 199 0
1 213 -204 0
1 184 205 0
1 184 -194 0
1 -184 204 0
1 -184 188 0
1 212 -187 0
1 212 185 0
1 -212 188 0
1 -185 -187 0
1 -185 212 0
1 -185 122 0
1 -185 -188 0
1 -194 167 0
1 194 -186 0
1 -194 -191 0
1 -194 190 0
1 194 -215 0
1 -194 196 0
1 194 213 0
1 194 -214 0
1 -194 137 0
1 -196 -191 0
1 196 -190 0
1 -196 -215 0
1 196 -140 0
1 -196 -158 0
1 196 189 0
1 196 214 0
1 196 137 0
1 205 -198 0
1 -205 195 0
1 -205 191 0
1 -205 -201 0
1 -205 -192 0
1 205 213 0
1 -205 214 0
1 204 -195 0
1 -204 -190 0
1 204 -215 0
1 204 -201 0
1 -204 197 0
1 204 213 0
1 214 -205 0
1 -214 199 0
1 214 209 0
1 -214 -196 0
1 214 -200 0
1 214 130 0
1 -215 -194 0
1 -215 -199 0
1 215 203 0
1 -215 200 0
1 -215 -210 0
1 -189 205 0
1 -189 194 0
1 189 -204 0
1 -190 189 0
1 203 -198 0
1 203 -191 0
1 -203 -142 0
1 203 -162 0
1 203 201 0
1 203 193 0
1 -203 -156 0
1 210 209 0
1 210 -197 0
1 210 156 0
1 -209 195 0
1 -209 -197 0
1 -195 205 0
1 195 -209 0
1 -195 -203 0
1 195 -197 0
1 195 -210 0
1 197 195 0
1 197 -210 0
1 -198 -205 0
1 198 -203 0
1 198 -204 0
1 198 -210 0
1 198 -137 0
1 201 -205 0
1 201 198 0
1 201 -210 0
